TYPE : Vertex Cover
DIMENSION: 28
EDGE_DATA_SECTION:
0 2
0 9
0 10
0 22
1 19
2 3
2 4
2 9
2 17
2 19
2 23
2 27
3 14
3 18
3 20
4 5
4 9
4 15
4 19
4 23
4 27
5 25
6 7
6 9
6 13
6 15
6 17
6 25
7 13
7 14
7 18
7 21
7 25
8 12
9 11
9 12
10 19
10 21
10 23
10 25
11 17
11 25
12 15
13 17
13 26
14 16
14 22
16 19
17 20
17 24
17 27
18 24
19 20
19 25
20 22
-1
VERTEX_DEGREE:
4.0 1.0 8.0 4.0 7.0 2.0 6.0 6.0 1.0 6.0 5.0 3.0 3.0 4.0 4.0 3.0 2.0 7.0 3.0 7.0 4.0 2.0 3.0 3.0 2.0 6.0 1.0 3.0
VERTEX_COVER:
0 2 4 5 6 7 10 11 12 13 14 17 18 19 20
EOF
